RST01
Position Depot: Random
Horizon for Depot: Small
Position of customers: Random
Distribution of the demand: Large
Width of time windows: Tight
Distribution of the service: Small

VEHICLE 
NUMBER 	 CAPACITY 
 6 	 	 375 
 
CUSTOMER
CUST NO. 	 XCOORD.  	 YCOORD. 	 DEMAND 	 READY TIME 	 DUE DATE 	 SERVICE TIME 
 0 	 	 525 	 	 692 	 	 0 	 	 0 	 	 2042 	 	 0 
  1 	 	 817 	 	 323 	 	 6 	 	 423 	 	 529 	 	 84 
  2 	 	 158 	 	 433 	 	 16 	 	 1080 	 	 1148 	 	 98 
  3 	 	 426 	 	 952 	 	 55 	 	 975 	 	 1122 	 	 88 
  4 	 	 469 	 	 96 	 	 26 	 	 508 	 	 658 	 	 63 
  5 	 	 558 	 	 717 	 	 28 	 	 793 	 	 977 	 	 97 
  6 	 	 522 	 	 733 	 	 79 	 	 1656 	 	 1837 	 	 88 
  7 	 	 482 	 	 770 	 	 48 	 	 1272 	 	 1348 	 	 74 
  8 	 	 651 	 	 960 	 	 87 	 	 1497 	 	 1622 	 	 82 
  9 	 	 814 	 	 975 	 	 48 	 	 592 	 	 687 	 	 76 
  10 	 	 679 	 	 814 	 	 70 	 	 455 	 	 553 	 	 54 
  11 	 	 875 	 	 232 	 	 11 	 	 478 	 	 635 	 	 97 
  12 	 	 228 	 	 504 	 	 83 	 	 495 	 	 553 	 	 75 
  13 	 	 352 	 	 411 	 	 60 	 	 802 	 	 904 	 	 53 
  14 	 	 292 	 	 939 	 	 30 	 	 287 	 	 373 	 	 71 
  15 	 	 674 	 	 895 	 	 85 	 	 1693 	 	 1881 	 	 93 
  16 	 	 303 	 	 625 	 	 75 	 	 1780 	 	 1945 	 	 77 
  17 	 	 690 	 	 308 	 	 48 	 	 1439 	 	 1569 	 	 66 
  18 	 	 232 	 	 464 	 	 51 	 	 1899 	 	 2033 	 	 52 
  19 	 	 592 	 	 796 	 	 27 	 	 1599 	 	 1673 	 	 92 
  20 	 	 640 	 	 139 	 	 32 	 	 677 	 	 763 	 	 95 
  21 	 	 512 	 	 889 	 	 58 	 	 1468 	 	 1620 	 	 66 
  22 	 	 12 	 	 426 	 	 41 	 	 1730 	 	 1816 	 	 70 
  23 	 	 70 	 	 211 	 	 50 	 	 576 	 	 728 	 	 89 
  24 	 	 522 	 	 565 	 	 12 	 	 1302 	 	 1471 	 	 63 
  25 	 	 115 	 	 141 	 	 49 	 	 1840 	 	 1918 	 	 74 
  26 	 	 789 	 	 529 	 	 76 	 	 1430 	 	 1542 	 	 79 
  27 	 	 790 	 	 494 	 	 70 	 	 272 	 	 363 	 	 98 
  28 	 	 5 	 	 928 	 	 46 	 	 1921 	 	 1985 	 	 86 
  29 	 	 470 	 	 139 	 	 97 	 	 949 	 	 1097 	 	 62 
  30 	 	 870 	 	 744 	 	 25 	 	 1202 	 	 1267 	 	 71 
  31 	 	 201 	 	 490 	 	 36 	 	 1479 	 	 1574 	 	 85 
  32 	 	 509 	 	 517 	 	 96 	 	 1645 	 	 1830 	 	 76 
  33 	 	 937 	 	 49 	 	 20 	 	 788 	 	 840 	 	 69 
  34 	 	 428 	 	 710 	 	 10 	 	 349 	 	 405 	 	 74 
  35 	 	 296 	 	 522 	 	 19 	 	 541 	 	 626 	 	 60 
  36 	 	 941 	 	 305 	 	 66 	 	 496 	 	 624 	 	 78 
  37 	 	 637 	 	 216 	 	 66 	 	 474 	 	 537 	 	 63 
  38 	 	 620 	 	 385 	 	 42 	 	 1901 	 	 2042 	 	 92 
  39 	 	 392 	 	 787 	 	 6 	 	 1301 	 	 1452 	 	 55 
  40 	 	 161 	 	 505 	 	 20 	 	 656 	 	 785 	 	 61 
  41 	 	 41 	 	 709 	 	 62 	 	 873 	 	 1014 	 	 72 
  42 	 	 355 	 	 993 	 	 80 	 	 961 	 	 1149 	 	 63 
  43 	 	 796 	 	 556 	 	 18 	 	 416 	 	 572 	 	 92 
  44 	 	 64 	 	 970 	 	 31 	 	 466 	 	 592 	 	 84 
  45 	 	 922 	 	 474 	 	 43 	 	 1206 	 	 1369 	 	 51 
  46 	 	 503 	 	 720 	 	 63 	 	 1901 	 	 1984 	 	 51 
  47 	 	 435 	 	 396 	 	 24 	 	 488 	 	 681 	 	 94 
  48 	 	 386 	 	 195 	 	 76 	 	 1301 	 	 1453 	 	 97 
  49 	 	 714 	 	 26 	 	 32 	 	 1229 	 	 1402 	 	 71 
  50 	 	 371 	 	 455 	 	 40 	 	 246 	 	 310 	 	 83 
 